Default LOCALE: LC_CTYPE=en_US.UTF-8;LC_NUMERIC=it_IT.UTF-8;LC_TIME=en_US.UTF-8;LC_COLLATE=en_US.UTF-8;LC_MONETARY=it_IT.UTF-8;LC_MESSAGES=en_US.UTF-8;LC_PAPER=it_IT.UTF-8;LC_NAME=it_IT.UTF-8;LC_ADDRESS=it_IT.UTF-8;LC_TELEPHONE=it_IT.UTF-8;LC_MEASUREMENT=it_IT.UTF-8;LC_IDENTIFICATION=it_IT.UTF-8

<<< setup, at 0s, took 1,54878e+09s


<<< generate, at 0s, took 0,00423217s

CPXPARAM_TimeLimit                               10
Tried aggregator 2 times.
MIP Presolve eliminated 9 rows and 9 columns.
Aggregator did 10 substitutions.
Reduced MIP has 111 rows, 181 columns, and 614 nonzeros.
Reduced MIP has 90 binaries, 91 generals, 0 SOSs, and 0 indicators.
Presolve time = 0,00 sec. (0,61 ticks)
Found incumbent of value 64,528131 after 0,00 sec. (1,23 ticks)
Probing fixed 7 vars, tightened 0 bounds.
Probing time = 0,00 sec. (0,36 ticks)
Cover probing fixed 0 vars, tightened 63 bounds.
Tried aggregator 1 time.
MIP Presolve eliminated 10 rows and 16 columns.
MIP Presolve modified 112 coefficients.
Reduced MIP has 101 rows, 165 columns, and 565 nonzeros.
Reduced MIP has 83 binaries, 82 generals, 0 SOSs, and 0 indicators.
Presolve time = 0,00 sec. (0,67 ticks)
Probing time = 0,00 sec. (0,30 ticks)
Clique table members: 19.
MIP emphasis: balance optimality and feasibility.
MIP search method: dynamic search.
Parallel mode: deterministic, using up to 4 threads.
Root relaxation solution time = 0,00 sec. (0,50 ticks)

        Nodes                                         Cuts/
   Node  Left     Objective  IInf  Best Integer    Best Bound    ItCnt     Gap

*     0+    0                           64,5281        0,0000           100,00%
      0     0       29,4746    29       64,5281       29,4746       71   54,32%
      0     0       30,5797    45       64,5281      Cuts: 54      104   52,61%
      0     0       31,4866    47       64,5281      Cuts: 29      135   51,20%
      0     0       31,6931    49       64,5281      Cuts: 22      155   50,88%
      0     0       31,7159    47       64,5281       Cuts: 7      162   50,85%
      0     0       32,0891    39       64,5281      Cuts: 10      190   50,27%
      0     0       32,2003    45       64,5281      Cuts: 17      213   50,10%
*     0     0      integral     0       32,3376      Cuts: 16      222    0,00%
      0     0        cutoff             32,3376       32,3376      222    0,00%
Elapsed time = 0,06 sec. (36,32 ticks, tree = 0,01 MB, solutions = 2)

Cover cuts applied:  3
Implied bound cuts applied:  6
Flow cuts applied:  16
Mixed integer rounding cuts applied:  1
Zero-half cuts applied:  4
Lift and project cuts applied:  4
Gomory fractional cuts applied:  1

Root node processing (before b&c):
  Real time             =    0,06 sec. (36,34 ticks)
Parallel b&c, 4 threads:
  Real time             =    0,00 sec. (0,00 ticks)
  Sync time (average)   =    0,00 sec.
  Wait time (average)   =    0,00 sec.
                          ------------
Total (root+branch&cut) =    0,06 sec. (36,34 ticks)

<<< solve, at 0,09s, took 0,0642378s


OBJECTIVE: 32.33755
01/29/2019 18:42:31 093
solving time ~= 65.96484375
Done
 [[0 0 0 0 0 3 0 0 0 0]
         [4 0 0 0 0 0 0 0 0 0]
         [0 5 0 0 0 0 0 0 0 0]
         [0 0 6 0 0 0 0 0 0 0]
         [0 0 0 7 0 0 0 0 0 0]
         [0 0 0 0 0 0 0 0 0 2]
         [0 0 0 0 8 0 0 0 0 0]
         [0 0 0 0 0 0 9 0 0 0]
         [0 0 0 0 0 0 0 10 0 0]
         [0 0 0 0 0 0 0 0 1 0]]

<<< post process, at 0,09s, took 0,000524998s

// solution (optimal) with objective 32.3375530561077
// Quality Incumbent solution:
// MILP objective                                 3,2337553056e+01
// MILP solution norm |x| (Total, Max)            6,50000e+01  1,00000e+01
// MILP solution error (Ax=b) (Total, Max)        0,00000e+00  0,00000e+00
// MILP x bound error (Total, Max)                5,32907e-15  2,66454e-15
// MILP x integrality error (Total, Max)          8,34888e-14  2,48690e-14
// MILP slack bound error (Total, Max)            9,23706e-14  3,37508e-14
// 

y = [[0
             0 0 0 0 1 0 0 0 0]
             [1 0 0 0 0 0 0 0 0 0]
             [0 1 0 0 0 0 0 0 0 0]
             [0 0 1 0 0 0 0 0 0 0]
             [0 0 0 1 0 0 0 0 0 0]
             [0 0 0 0 0 0 0 0 0 1]
             [0 0 0 0 1 0 0 0 0 0]
             [0 0 0 0 0 0 1 0 0 0]
             [0 0 0 0 0 0 0 1 0 0]
             [0 0 0 0 0 0 0 0 1 0]];
x = [[0 0 0 0 0 3 0 0 0 0]
             [4 0 0 0 0 0 0 0 0 0]
             [0 5 0 0 0 0 0 0 0 0]
             [0 0 6 0 0 0 0 0 0 0]
             [0 0 0 7 0 0 0 0 0 0]
             [0 0 0 0 0 0 0 0 0 2]
             [0 0 0 0 8 0 0 0 0 0]
             [0 0 0 0 0 0 9 0 0 0]
             [0 0 0 0 0 0 0 10 0 0]
             [0 0 0 0 0 0 0 0 1 0]];

<<< done, at 0,09s, took 0,000401974s

